p cnf 246 420               
-8 34 0
-7 33 0
-6 32 0
-5 31 0
-4 30 0
-3 29 0
-1 28 0
-2 28 0
1 2 -28 0
-28 29 0
3 28 -29 0
-29 30 0
4 29 -30 0
-30 31 0
5 30 -31 0
-31 32 0
6 31 -32 0
-32 33 0
7 32 -33 0
-33 34 0
8 33 -34 0
34 93 0
-16 41 0
-15 40 0
-14 39 0
-13 38 0
-12 37 0
-11 36 0
-9 35 0
-10 35 0
9 10 -35 0
-35 36 0
11 35 -36 0
-36 37 0
12 36 -37 0
-37 38 0
13 37 -38 0
-38 39 0
14 38 -39 0
-39 40 0
15 39 -40 0
-40 41 0
16 40 -41 0
41 49 0
34 49 0
-41 -34 -49 0
49 -53 0
-34 50 0
-41 50 0
34 41 -50 0
50 51 0
-24 48 0
-23 47 0
-22 46 0
-21 45 0
-20 44 0
-19 43 0
-17 42 0
-18 42 0
17 18 -42 0
-42 43 0
19 42 -43 0
-43 44 0
20 43 -44 0
-44 45 0
21 44 -45 0
-45 46 0
22 45 -46 0
-46 47 0
23 46 -47 0
-47 48 0
24 47 -48 0
48 51 0
-50 -48 -51 0
51 -53 0
-48 52 0
-50 52 0
48 50 -52 0
52 -53 0
-49 -51 -52 53 0
-53 -34 90 0
53 -25 90 0
-34 -25 90 0
-90 93 0
41 94 0
-53 -41 91 0
53 -26 91 0
-41 -26 91 0
-91 94 0
48 95 0
-53 -48 92 0
53 -27 92 0
-48 -27 92 0
-92 95 0
-93 -94 -95 96 0
-96 -97 0
53 -97 0
-18 63 0
-2 55 0
-10 55 0
2 10 -55 0
-55 63 0
18 55 -63 0
-17 62 0
-1 54 0
-9 54 0
1 9 -54 0
-54 62 0
17 54 -62 0
-63 -62 -70 0
70 -84 0
-62 71 0
-63 71 0
62 63 -71 0
-19 64 0
-3 56 0
-11 56 0
3 11 -56 0
-56 64 0
19 56 -64 0
-71 -64 -72 0
72 -84 0
-64 73 0
-71 73 0
64 71 -73 0
-20 65 0
-4 57 0
-12 57 0
4 12 -57 0
-57 65 0
20 57 -65 0
-73 -65 -74 0
74 -84 0
-65 75 0
-73 75 0
65 73 -75 0
-21 66 0
-5 58 0
-13 58 0
5 13 -58 0
-58 66 0
21 58 -66 0
-75 -66 -76 0
76 -84 0
-66 77 0
-75 77 0
66 75 -77 0
-22 67 0
-6 59 0
-14 59 0
6 14 -59 0
-59 67 0
22 59 -67 0
-77 -67 -78 0
78 -84 0
-67 79 0
-77 79 0
67 77 -79 0
-23 68 0
-7 60 0
-15 60 0
7 15 -60 0
-60 68 0
23 60 -68 0
-79 -68 -80 0
80 -84 0
-68 81 0
-79 81 0
68 79 -81 0
-24 69 0
-8 61 0
-16 61 0
8 16 -61 0
-61 69 0
24 61 -69 0
-81 -69 -82 0
82 -84 0
69 81 -83 0
83 -84 0
84 -97 0
-26 -25 -85 0
85 -89 0
-25 86 0
-26 86 0
25 26 -86 0
-86 -27 -87 0
87 -89 0
27 86 -88 0
88 -89 0
89 -97 0
-1 2 -98 0
98 -108 0
-1 -2 99 0
1 2 99 0
-2 2 99 0
-9 10 -100 0
-99 100 -101 0
101 -108 0
-9 -10 102 0
9 10 102 0
-10 10 102 0
-99 -102 103 0
-17 18 -104 0
-103 104 -105 0
105 -108 0
108 -245 0
-2 3 -109 0
109 -119 0
-2 -3 110 0
2 3 110 0
-3 3 110 0
-10 11 -111 0
-110 111 -112 0
112 -119 0
-10 -11 113 0
10 11 113 0
-11 11 113 0
-110 -113 114 0
-18 19 -115 0
-114 115 -116 0
116 -119 0
119 -245 0
-3 4 -120 0
120 -130 0
-3 -4 121 0
3 4 121 0
-4 4 121 0
-11 12 -122 0
-121 122 -123 0
123 -130 0
-11 -12 124 0
11 12 124 0
-12 12 124 0
-121 -124 125 0
-19 20 -126 0
-125 126 -127 0
127 -130 0
130 -245 0
-4 5 -131 0
131 -141 0
-4 -5 132 0
4 5 132 0
-5 5 132 0
-12 13 -133 0
-132 133 -134 0
134 -141 0
-12 -13 135 0
12 13 135 0
-13 13 135 0
-132 -135 136 0
-20 21 -137 0
-136 137 -138 0
138 -141 0
141 -245 0
-5 6 -142 0
142 -152 0
-5 -6 143 0
5 6 143 0
-6 6 143 0
-13 14 -144 0
-143 144 -145 0
145 -152 0
-13 -14 146 0
13 14 146 0
-14 14 146 0
-143 -146 147 0
-21 22 -148 0
-147 148 -149 0
149 -152 0
152 -245 0
-6 7 -153 0
153 -163 0
-6 -7 154 0
6 7 154 0
-7 7 154 0
-14 15 -155 0
-154 155 -156 0
156 -163 0
-14 -15 157 0
14 15 157 0
-15 15 157 0
-154 -157 158 0
-22 23 -159 0
-158 159 -160 0
160 -163 0
163 -245 0
-7 8 -164 0
164 -174 0
-7 -8 165 0
7 8 165 0
-8 8 165 0
-15 16 -166 0
-165 166 -167 0
167 -174 0
-15 -16 168 0
15 16 168 0
-16 16 168 0
-165 -168 169 0
-23 24 -170 0
-169 170 -171 0
171 -174 0
174 -245 0
-25 26 -175 0
175 -209 0
-25 -26 176 0
25 26 176 0
-26 26 176 0
-1 9 -177 0
-176 177 -178 0
178 -209 0
-1 -9 179 0
1 9 179 0
-9 9 179 0
-176 -179 180 0
-2 10 -181 0
-180 181 -182 0
182 -209 0
-2 -10 183 0
2 10 183 0
-10 10 183 0
-180 -183 184 0
-3 11 -185 0
-184 185 -186 0
186 -209 0
-3 -11 187 0
3 11 187 0
-11 11 187 0
-184 -187 188 0
-4 12 -189 0
-188 189 -190 0
190 -209 0
-4 -12 191 0
4 12 191 0
-12 12 191 0
-188 -191 192 0
-5 13 -193 0
-192 193 -194 0
194 -209 0
-5 -13 195 0
5 13 195 0
-13 13 195 0
-192 -195 196 0
-6 14 -197 0
-196 197 -198 0
198 -209 0
-6 -14 199 0
6 14 199 0
-14 14 199 0
-196 -199 200 0
-7 15 -201 0
-200 201 -202 0
202 -209 0
-7 -15 203 0
7 15 203 0
-15 15 203 0
-200 -203 204 0
-8 16 -205 0
-204 205 -206 0
206 -209 0
209 -245 0
-26 27 -210 0
210 -244 0
-26 -27 211 0
26 27 211 0
-27 27 211 0
-9 17 -212 0
-211 212 -213 0
213 -244 0
-9 -17 214 0
9 17 214 0
-17 17 214 0
-211 -214 215 0
-10 18 -216 0
-215 216 -217 0
217 -244 0
-10 -18 218 0
10 18 218 0
-18 18 218 0
-215 -218 219 0
-11 19 -220 0
-219 220 -221 0
221 -244 0
-11 -19 222 0
11 19 222 0
-19 19 222 0
-219 -222 223 0
-12 20 -224 0
-223 224 -225 0
225 -244 0
-12 -20 226 0
12 20 226 0
-20 20 226 0
-223 -226 227 0
-13 21 -228 0
-227 228 -229 0
229 -244 0
-13 -21 230 0
13 21 230 0
-21 21 230 0
-227 -230 231 0
-14 22 -232 0
-231 232 -233 0
233 -244 0
-14 -22 234 0
14 22 234 0
-22 22 234 0
-231 -234 235 0
-15 23 -236 0
-235 236 -237 0
237 -244 0
-15 -23 238 0
15 23 238 0
-23 23 238 0
-235 -238 239 0
-16 24 -240 0
-239 240 -241 0
241 -244 0
244 -245 0
97 0
245 0
